p cnf 50 700 
1 -18 -20 0
1 -10 43 0
1 41 -17 0
1 21 -25 0
1 27 -37 0
1 16 46 0
1 28 7 0
1 16 -3 0
1 23 -41 0
1 34 8 0
1 25 -13 0
1 38 24 0
1 -44 -11 0
1 31 -6 0
1 7 21 0
1 -34 37 0
1 46 14 0
1 -17 -30 0
1 46 -23 0
1 47 -31 0
1 -41 48 0
1 3 47 0
1 18 12 0
1 48 -49 0
1 -12 -31 0
1 11 25 0
1 -47 -26 0
1 -6 -48 0
1 45 -13 0
1 10 -25 0
1 -36 -24 0
1 -23 -2 0
1 32 -25 0
1 -49 -22 0
1 -48 37 0
1 -35 -22 0
1 -34 -17 0
1 41 -32 0
1 6 -47 0
1 48 -38 0
1 12 26 0
1 47 -18 0
1 -5 -45 0
1 16 -47 0
1 -13 44 0
1 -26 -12 0
1 8 41 0
1 -29 -21 0
1 46 -6 0
1 -24 -7 0
1 2 33 0
1 30 -35 0
1 -29 9 0
1 -20 -25 0
1 -16 -43 0
1 -14 19 0
1 24 -36 0
1 42 -37 0
1 20 -42 0
1 -26 27 0
1 35 34 0
1 -9 43 0
1 36 -15 0
1 33 3 0
1 38 -8 0
1 44 28 0
1 20 -33 0
1 -9 -1 0
1 -35 -8 0
1 1 -30 0
1 -45 -35 0
1 -37 42 0
1 50 -37 0
1 15 -26 0
1 -8 17 0
1 17 29 0
1 -37 -7 0
1 37 -11 0
1 46 -7 0
1 49 -41 0
1 -28 -10 0
1 -36 -47 0
1 13 -5 0
1 -34 18 0
1 25 -7 0
1 -29 -41 0
1 -48 -14 0
1 21 -32 0
1 23 8 0
1 -33 -8 0
1 16 -11 0
1 41 -8 0
1 19 1 0
1 32 -10 0
1 44 -46 0
1 -11 46 0
1 12 17 0
1 -48 38 0
1 -9 -19 0
1 -26 -14 0
1 14 -21 0
1 -30 11 0
1 -7 5 0
1 -1 47 0
1 -14 36 0
1 24 -16 0
1 -34 17 0
1 31 -27 0
1 -47 -7 0
1 -17 29 0
1 -34 -49 0
1 -46 25 0
1 11 -27 0
1 42 38 0
1 -4 -47 0
1 -23 37 0
1 -44 17 0
1 -45 -33 0
1 -23 -13 0
1 8 -48 0
1 18 42 0
1 8 50 0
1 -33 43 0
1 21 -45 0
1 -39 -23 0
1 -6 -10 0
1 -23 -15 0
1 13 -34 0
1 -25 -39 0
1 -38 43 0
1 -36 12 0
1 -6 -3 0
1 -26 -24 0
1 34 3 0
1 -18 -35 0
1 18 -49 0
1 38 -45 0
1 -38 11 0
1 -22 -37 0
1 40 21 0
1 -45 -48 0
1 -1 5 0
1 -39 20 0
1 -19 9 0
1 -3 -25 0
1 35 28 0
1 -14 42 0
1 13 4 0
1 -1 13 0
1 17 19 0
1 39 17 0
1 25 -11 0
1 35 44 0
1 21 -31 0
1 -23 -7 0
1 -10 4 0
1 16 -27 0
1 -45 -30 0
1 -46 49 0
1 -9 -3 0
1 46 16 0
1 47 37 0
1 44 37 0
1 41 46 0
1 -22 25 0
1 -5 -25 0
1 23 -40 0
1 42 -19 0
1 35 -36 0
1 23 5 0
1 42 -5 0
1 -50 33 0
1 -7 25 0
1 49 38 0
1 27 32 0
1 50 -26 0
1 12 -11 0
1 -16 15 0
1 -19 18 0
1 -50 26 0
1 1 -27 0
1 14 -28 0
1 9 23 0
1 -49 15 0
1 -25 -7 0
1 -21 -42 0
1 10 35 0
1 11 47 0
1 24 -32 0
1 -9 33 0
1 -5 36 0
1 50 18 0
1 24 -5 0
1 -47 10 0
1 45 42 0
1 39 29 0
1 -11 29 0
1 -11 26 0
1 12 -19 0
1 31 -36 0
1 -49 48 0
1 32 38 0
1 2 -10 0
1 -27 24 0
1 22 -10 0
1 46 32 0
1 -50 -20 0
1 5 40 0
1 37 47 0
1 -35 -16 0
1 25 3 0
1 26 -8 0
1 -18 22 0
1 3 4 0
1 -23 -7 0
1 -46 -47 0
1 -43 50 0
1 -41 -13 0
1 30 -34 0
1 39 17 0
1 11 17 0
1 -37 -16 0
1 -48 -15 0
1 -46 -21 0
1 -21 14 0
1 26 30 0
1 -13 25 0
1 41 46 0
1 13 -26 0
1 -42 -3 0
1 -18 32 0
1 2 19 0
1 -32 49 0
1 29 -39 0
1 -13 4 0
1 50 6 0
1 31 20 0
1 23 -3 0
1 34 -43 0
1 12 -5 0
1 -3 -41 0
1 30 -12 0
1 -16 15 0
1 -20 50 0
1 20 -36 0
1 -38 34 0
1 27 -34 0
1 -38 -14 0
1 5 -30 0
1 -42 44 0
1 9 -22 0
1 -22 -46 0
1 -31 2 0
1 -36 14 0
1 -47 -48 0
1 12 31 0
1 10 47 0
1 40 -27 0
1 -49 27 0
1 23 5 0
1 6 -43 0
1 7 13 0
1 -10 4 0
1 -34 -13 0
1 -9 -37 0
1 -14 1 0
1 -28 22 0
1 26 -43 0
1 35 -26 0
1 -39 -27 0
1 31 33 0
1 46 6 0
1 42 2 0
1 3 -48 0
1 -20 -50 0
1 -42 -34 0
1 10 -49 0
1 -26 13 0
1 45 -15 0
1 -20 27 0
1 28 -47 0
1 45 35 0
1 34 40 0
1 23 -34 0
1 -33 19 0
1 32 -26 0
1 40 32 0
1 8 -11 0
1 7 38 0
1 22 24 0
1 -13 -23 0
1 7 -31 0
1 -50 -48 0
1 24 9 0
1 40 -23 0
1 -33 -42 0
1 -29 47 0
1 20 -4 0
1 27 -35 0
1 16 36 0
1 -34 17 0
1 25 2 0
1 25 41 0
1 -33 45 0
1 41 36 0
1 -40 17 0
1 -1 11 0
1 -47 -19 0
1 -35 26 0
1 28 5 0
1 46 -37 0
1 -32 5 0
1 -40 -1 0
1 -18 26 0
1 -36 -44 0
1 12 -15 0
1 41 48 0
1 3 -31 0
1 -18 -29 0
1 33 16 0
1 17 -4 0
1 29 47 0
1 -40 36 0
1 -1 -9 0
1 6 5 0
1 36 29 0
1 7 -33 0
1 49 22 0
1 -25 15 0
1 12 1 0
1 36 -15 0
1 -23 -1 0
1 -5 -36 0
1 -14 44 0
1 26 44 0
1 -16 -22 0
1 -36 -37 0
1 -37 11 0
1 26 -1 0
1 -2 35 0
1 -20 -14 0
1 7 -39 0
1 33 -13 0
1 -35 44 0
1 31 -18 0
1 16 39 0
1 47 -15 0
1 42 24 0
1 20 34 0
1 -38 -45 0
1 -1 -38 0
1 25 6 0
1 -23 -42 0
1 30 -13 0
1 27 22 0
1 46 10 0
1 44 -37 0
1 -32 -14 0
1 -2 -15 0
1 -20 -1 0
1 -42 27 0
1 -39 36 0
1 -8 7 0
1 16 9 0
1 -46 -42 0
1 6 19 0
1 -34 35 0
1 -36 -14 0
1 -40 -26 0
1 -12 47 0
1 3 28 0
1 -36 -40 0
1 31 -16 0
1 -35 16 0
1 1 -28 0
1 41 -16 0
1 42 11 0
1 7 3 0
1 -30 43 0
1 -32 4 0
1 -20 3 0
1 19 43 0
1 20 43 0
1 -8 -18 0
1 28 -1 0
1 -3 -23 0
1 -15 -21 0
1 24 -43 0
1 -46 8 0
1 -50 20 0
1 -12 39 0
1 6 -22 0
1 22 21 0
1 44 11 0
1 31 4 0
1 -47 -13 0
1 20 45 0
1 -14 -41 0
1 -29 -19 0
1 41 13 0
1 -34 -35 0
1 -45 44 0
1 -48 -38 0
1 -1 26 0
1 -21 -43 0
1 33 29 0
1 -48 -5 0
1 -17 -13 0
1 -47 -37 0
1 30 -10 0
1 48 -44 0
1 20 -7 0
1 -50 -9 0
1 -37 -36 0
1 40 23 0
1 -22 6 0
1 -32 -40 0
1 -5 -15 0
1 35 -38 0
1 -6 10 0
1 35 24 0
1 18 35 0
1 7 -15 0
1 -20 7 0
1 -46 24 0
1 -38 32 0
1 19 18 0
1 -27 6 0
1 -29 -38 0
1 23 -39 0
1 3 12 0
1 19 44 0
1 18 16 0
1 -47 14 0
1 -32 42 0
1 47 -27 0
1 15 -49 0
1 37 -26 0
1 38 23 0
1 16 -35 0
1 -50 -36 0
1 49 -17 0
1 -9 2 0
1 -29 -6 0
1 -4 -3 0
1 -29 46 0
1 18 -41 0
1 25 43 0
1 29 -6 0
1 23 -34 0
1 -35 45 0
1 1 16 0
1 -19 -37 0
1 32 -24 0
1 -14 -36 0
1 29 1 0
1 -7 -35 0
1 19 41 0
1 36 -44 0
1 -10 -23 0
1 9 -34 0
1 -7 38 0
1 24 9 0
1 -22 9 0
1 43 -9 0
1 18 28 0
1 44 5 0
1 -44 -48 0
1 -22 16 0
1 -5 -3 0
1 11 -36 0
1 -44 -32 0
1 41 13 0
1 40 -38 0
1 -42 -39 0
1 36 25 0
1 40 -45 0
1 47 1 0
1 -36 -25 0
1 7 -28 0
1 40 -35 0
1 22 24 0
1 -12 -49 0
1 -11 4 0
1 21 -2 0
1 10 -7 0
1 -36 25 0
1 -22 -17 0
1 -46 7 0
1 21 12 0
1 -8 6 0
1 -32 35 0
1 -37 -4 0
1 -11 -15 0
1 -39 23 0
1 -39 -32 0
1 -39 38 0
1 -49 12 0
1 18 -8 0
1 43 -1 0
1 5 48 0
1 12 20 0
1 42 -8 0
1 39 -49 0
1 -36 -8 0
1 -20 -14 0
1 -22 9 0
1 -9 38 0
1 -36 -18 0
1 -38 -39 0
1 46 -8 0
1 6 -26 0
1 -34 48 0
1 -12 -17 0
1 -26 -27 0
1 -15 41 0
1 -9 -26 0
1 -14 44 0
1 -2 37 0
1 -12 -5 0
1 -3 25 0
1 -42 39 0
1 16 -45 0
1 -35 -49 0
1 -24 -27 0
1 -21 17 0
1 -3 39 0
1 44 -27 0
1 2 -8 0
1 46 6 0
1 -1 -11 0
1 -10 -22 0
1 48 19 0
1 -35 -15 0
1 4 -18 0
1 -45 -12 0
1 -19 2 0
1 -8 49 0
1 -9 18 0
1 39 -22 0
1 40 20 0
1 34 -44 0
1 -12 14 0
1 25 -27 0
1 29 -41 0
1 -39 -34 0
1 1 -36 0
1 -7 -15 0
1 35 30 0
1 24 -33 0
1 -47 40 0
1 16 -43 0
1 -33 22 0
1 6 23 0
1 -8 32 0
1 47 -21 0
1 -50 33 0
1 16 5 0
1 -44 49 0
1 41 46 0
1 -17 33 0
1 -5 11 0
1 -42 -23 0
1 43 -39 0
1 21 -18 0
1 -22 24 0
1 23 29 0
1 -24 -28 0
1 10 29 0
1 -40 -41 0
1 14 4 0
1 -42 39 0
1 -6 -15 0
1 -39 44 0
1 22 -18 0
1 -45 10 0
1 39 -49 0
1 39 44 0
1 48 -28 0
1 16 8 0
1 -23 48 0
1 42 43 0
1 10 45 0
1 5 -45 0
1 43 -26 0
1 -20 29 0
1 7 42 0
1 -49 6 0
1 -4 -44 0
1 37 -3 0
1 47 17 0
1 -11 8 0
1 -34 14 0
1 42 -18 0
1 9 25 0
1 -31 -15 0
1 -9 -10 0
1 -12 38 0
1 4 41 0
1 49 -3 0
1 -17 2 0
1 19 -4 0
1 -29 27 0
1 -41 -13 0
1 -23 43 0
1 34 43 0
1 3 28 0
1 46 -4 0
1 38 -30 0
1 36 42 0
1 27 -30 0
1 24 -1 0
1 44 -46 0
1 39 -19 0
1 -47 -23 0
1 -27 17 0
1 46 -3 0
1 -45 27 0
1 7 -45 0
1 -45 -21 0
1 16 31 0
1 -50 -17 0
1 40 39 0
1 27 -31 0
1 37 32 0
1 24 44 0
1 3 49 0
1 -25 2 0
1 17 -43 0
1 37 -2 0
1 -40 38 0
1 -18 32 0
1 14 -18 0
1 11 37 0
1 -36 19 0
1 20 -27 0
1 20 18 0
1 40 -32 0
1 -13 -26 0
1 21 -48 0
1 -15 46 0
1 -1 12 0
1 -50 -46 0
1 -11 -24 0
1 42 -1 0
1 33 -12 0
1 -38 2 0
1 49 -45 0
1 -43 14 0
1 50 -14 0
1 2 30 0
1 24 35 0
1 36 -48 0
1 -5 1 0
1 41 -42 0
1 -36 -18 0
1 -32 -28 0
1 -41 -37 0
1 16 -31 0
1 15 33 0
1 -30 -20 0
1 -20 32 0
1 -23 45 0
1 -12 -33 0
1 10 -20 0
1 -7 49 0
1 30 -8 0
1 -41 25 0
1 44 42 0
1 23 -44 0
1 39 -24 0
1 -7 41 0
1 11 17 0
1 -16 -7 0
1 -14 2 0
1 26 33 0
1 -25 -28 0
1 -22 8 0
1 32 -47 0
1 38 -2 0
1 19 -18 0
1 -24 -5 0
1 -6 -17 0
1 50 15 0
1 42 34 0
1 41 15 0
1 12 -32 0
1 -33 12 0
1 -30 13 0
1 -18 13 0
1 30 -31 0
1 46 -6 0
1 39 -25 0
1 40 23 0
1 -4 -12 0
1 -24 47 0
1 10 -23 0
1 -36 46 0
1 -26 4 0
1 10 -47 0
1 %
1 0
1 
